letting numberLocations be  38
letting costs be function (
(0,0) --> 0,
(0,1) --> 40,
(0,2) --> 60,
(0,3) --> 18,
(0,4) --> 78,
(0,5) --> 15,
(0,6) --> 30,
(0,7) --> 57,
(0,8) --> 58,
(0,9) --> 42,
(0,10) --> 67,
(0,11) --> 24,
(0,12) --> 42,
(0,13) --> 12,
(0,14) --> 56,
(0,15) --> 8,
(0,16) --> 87,
(0,17) --> 54,
(0,18) --> 53,
(0,19) --> 73,
(0,20) --> 29,
(0,21) --> 45,
(0,22) --> 62,
(0,23) --> 48,
(0,24) --> 9,
(0,25) --> 81,
(0,26) --> 10,
(0,27) --> 61,
(0,28) --> 32,
(0,29) --> 27,
(0,30) --> 18,
(0,31) --> 49,
(0,32) --> 45,
(0,33) --> 74,
(0,34) --> 65,
(0,35) --> 85,
(0,36) --> 43,
(0,37) --> 47,
(0,38) --> 39,
(1,0) --> 40,
(1,1) --> 0,
(1,2) --> 71,
(1,3) --> 55,
(1,4) --> 76,
(1,5) --> 48,
(1,6) --> 10,
(1,7) --> 58,
(1,8) --> 62,
(1,9) --> 80,
(1,10) --> 54,
(1,11) --> 24,
(1,12) --> 80,
(1,13) --> 40,
(1,14) --> 78,
(1,15) --> 43,
(1,16) --> 74,
(1,17) --> 15,
(1,18) --> 27,
(1,19) --> 78,
(1,20) --> 34,
(1,21) --> 11,
(1,22) --> 33,
(1,23) --> 9,
(1,24) --> 48,
(1,25) --> 98,
(1,26) --> 39,
(1,27) --> 42,
(1,28) --> 71,
(1,29) --> 66,
(1,30) --> 40,
(1,31) --> 78,
(1,32) --> 33,
(1,33) --> 81,
(1,34) --> 39,
(1,35) --> 108,
(1,36) --> 8,
(1,37) --> 80,
(1,38) --> 75,
(2,0) --> 60,
(2,1) --> 71,
(2,2) --> 0,
(2,3) --> 51,
(2,4) --> 26,
(2,5) --> 74,
(2,6) --> 68,
(2,7) --> 17,
(2,8) --> 13,
(2,9) --> 88,
(2,10) --> 38,
(2,11) --> 76,
(2,12) --> 58,
(2,13) --> 48,
(2,14) --> 19,
(2,15) --> 52,
(2,16) --> 46,
(2,17) --> 84,
(2,18) --> 56,
(2,19) --> 14,
(2,20) --> 39,
(2,21) --> 65,
(2,22) --> 60,
(2,23) --> 72,
(2,24) --> 57,
(2,25) --> 28,
(2,26) --> 70,
(2,27) --> 46,
(2,28) --> 79,
(2,29) --> 72,
(2,30) --> 42,
(2,31) --> 33,
(2,32) --> 41,
(2,33) --> 15,
(2,34) --> 57,
(2,35) --> 40,
(2,36) --> 79,
(2,37) --> 43,
(2,38) --> 51,
(3,0) --> 18,
(3,1) --> 55,
(3,2) --> 51,
(3,3) --> 0,
(3,4) --> 73,
(3,5) --> 27,
(3,6) --> 46,
(3,7) --> 53,
(3,8) --> 52,
(3,9) --> 38,
(3,10) --> 68,
(3,11) --> 43,
(3,12) --> 25,
(3,13) --> 16,
(3,14) --> 42,
(3,15) --> 13,
(3,16) --> 86,
(3,17) --> 70,
(3,18) --> 62,
(3,19) --> 65,
(3,20) --> 32,
(3,21) --> 58,
(3,22) --> 70,
(3,23) --> 63,
(3,24) --> 10,
(3,25) --> 66,
(3,26) --> 27,
(3,27) --> 65,
(3,28) --> 29,
(3,29) --> 22,
(3,30) --> 19,
(3,31) --> 32,
(3,32) --> 50,
(3,33) --> 65,
(3,34) --> 72,
(3,35) --> 69,
(3,36) --> 59,
(3,37) --> 28,
(3,38) --> 21,
(4,0) --> 78,
(4,1) --> 76,
(4,2) --> 26,
(4,3) --> 73,
(4,4) --> 0,
(4,5) --> 93,
(4,6) --> 76,
(4,7) --> 21,
(4,8) --> 21,
(4,9) --> 111,
(4,10) --> 26,
(4,11) --> 88,
(4,12) --> 84,
(4,13) --> 66,
(4,14) --> 45,
(4,15) --> 71,
(4,16) --> 22,
(4,17) --> 85,
(4,18) --> 53,
(4,19) --> 14,
(4,20) --> 51,
(4,21) --> 67,
(4,22) --> 53,
(4,23) --> 74,
(4,24) --> 77,
(4,25) --> 44,
(4,26) --> 87,
(4,27) --> 38,
(4,28) --> 102,
(4,29) --> 94,
(4,30) --> 59,
(4,31) --> 59,
(4,32) --> 43,
(4,33) --> 18,
(4,34) --> 48,
(4,35) --> 58,
(4,36) --> 84,
(4,37) --> 69,
(4,38) --> 76,
(5,0) --> 15,
(5,1) --> 48,
(5,2) --> 74,
(5,3) --> 27,
(5,4) --> 93,
(5,5) --> 0,
(5,6) --> 38,
(5,7) --> 72,
(5,8) --> 73,
(5,9) --> 32,
(5,10) --> 82,
(5,11) --> 26,
(5,12) --> 45,
(5,13) --> 27,
(5,14) --> 69,
(5,15) --> 22,
(5,16) --> 102,
(5,17) --> 61,
(5,18) --> 66,
(5,19) --> 87,
(5,20) --> 44,
(5,21) --> 55,
(5,22) --> 74,
(5,23) --> 57,
(5,24) --> 18,
(5,25) --> 93,
(5,26) --> 9,
(5,27) --> 75,
(5,28) --> 24,
(5,29) --> 22,
(5,30) --> 34,
(5,31) --> 59,
(5,32) --> 60,
(5,33) --> 89,
(5,34) --> 78,
(5,35) --> 96,
(5,36) --> 48,
(5,37) --> 55,
(5,38) --> 44,
(6,0) --> 30,
(6,1) --> 10,
(6,2) --> 68,
(6,3) --> 46,
(6,4) --> 76,
(6,5) --> 38,
(6,6) --> 0,
(6,7) --> 57,
(6,8) --> 60,
(6,9) --> 70,
(6,10) --> 57,
(6,11) --> 16,
(6,12) --> 71,
(6,13) --> 31,
(6,14) --> 72,
(6,15) --> 34,
(6,16) --> 78,
(6,17) --> 24,
(6,18) --> 32,
(6,19) --> 77,
(6,20) --> 30,
(6,21) --> 18,
(6,22) --> 40,
(6,23) --> 19,
(6,24) --> 38,
(6,25) --> 94,
(6,26) --> 29,
(6,27) --> 46,
(6,28) --> 61,
(6,29) --> 56,
(6,30) --> 33,
(6,31) --> 71,
(6,32) --> 34,
(6,33) --> 80,
(6,34) --> 45,
(6,35) --> 102,
(6,36) --> 13,
(6,37) --> 72,
(6,38) --> 66,
(7,0) --> 57,
(7,1) --> 58,
(7,2) --> 17,
(7,3) --> 53,
(7,4) --> 21,
(7,5) --> 72,
(7,6) --> 57,
(7,7) --> 0,
(7,8) --> 4,
(7,9) --> 91,
(7,10) --> 22,
(7,11) --> 68,
(7,12) --> 67,
(7,13) --> 45,
(7,14) --> 34,
(7,15) --> 50,
(7,16) --> 34,
(7,17) --> 70,
(7,18) --> 40,
(7,19) --> 20,
(7,20) --> 30,
(7,21) --> 51,
(7,22) --> 43,
(7,23) --> 58,
(7,24) --> 56,
(7,25) --> 45,
(7,26) --> 66,
(7,27) --> 29,
(7,28) --> 82,
(7,29) --> 74,
(7,30) --> 39,
(7,31) --> 46,
(7,32) --> 26,
(7,33) --> 23,
(7,34) --> 40,
(7,35) --> 57,
(7,36) --> 66,
(7,37) --> 54,
(7,38) --> 59,
(8,0) --> 58,
(8,1) --> 62,
(8,2) --> 13,
(8,3) --> 52,
(8,4) --> 21,
(8,5) --> 73,
(8,6) --> 60,
(8,7) --> 4,
(8,8) --> 0,
(8,9) --> 90,
(8,10) --> 26,
(8,11) --> 70,
(8,12) --> 64,
(8,13) --> 46,
(8,14) --> 30,
(8,15) --> 51,
(8,16) --> 37,
(8,17) --> 74,
(8,18) --> 44,
(8,19) --> 16,
(8,20) --> 32,
(8,21) --> 55,
(8,22) --> 48,
(8,23) --> 62,
(8,24) --> 56,
(8,25) --> 40,
(8,26) --> 67,
(8,27) --> 33,
(8,28) --> 81,
(8,29) --> 74,
(8,30) --> 39,
(8,31) --> 42,
(8,32) --> 30,
(8,33) --> 20,
(8,34) --> 45,
(8,35) --> 53,
(8,36) --> 70,
(8,37) --> 51,
(8,38) --> 57,
(9,0) --> 42,
(9,1) --> 80,
(9,2) --> 88,
(9,3) --> 38,
(9,4) --> 111,
(9,5) --> 32,
(9,6) --> 70,
(9,7) --> 91,
(9,8) --> 90,
(9,9) --> 0,
(9,10) --> 106,
(9,11) --> 58,
(9,12) --> 36,
(9,13) --> 50,
(9,14) --> 75,
(9,15) --> 44,
(9,16) --> 125,
(9,17) --> 93,
(9,18) --> 95,
(9,19) --> 102,
(9,20) --> 68,
(9,21) --> 87,
(9,22) --> 104,
(9,23) --> 89,
(9,24) --> 37,
(9,25) --> 98,
(9,26) --> 41,
(9,27) --> 102,
(9,28) --> 10,
(9,29) --> 17,
(9,30) --> 55,
(9,31) --> 61,
(9,32) --> 86,
(9,33) --> 102,
(9,34) --> 107,
(9,35) --> 96,
(9,36) --> 81,
(9,37) --> 52,
(9,38) --> 40,
(10,0) --> 67,
(10,1) --> 54,
(10,2) --> 38,
(10,3) --> 68,
(10,4) --> 26,
(10,5) --> 82,
(10,6) --> 57,
(10,7) --> 22,
(10,8) --> 26,
(10,9) --> 106,
(10,10) --> 0,
(10,11) --> 71,
(10,12) --> 86,
(10,13) --> 57,
(10,14) --> 56,
(10,15) --> 62,
(10,16) --> 21,
(10,17) --> 62,
(10,18) --> 29,
(10,19) --> 35,
(10,20) --> 38,
(10,21) --> 44,
(10,22) --> 28,
(10,23) --> 51,
(10,24) --> 69,
(10,25) --> 65,
(10,26) --> 74,
(10,27) --> 13,
(10,28) --> 96,
(10,29) --> 89,
(10,30) --> 51,
(10,31) --> 67,
(10,32) --> 23,
(10,33) --> 39,
(10,34) --> 23,
(10,35) --> 78,
(10,36) --> 62,
(10,37) --> 75,
(10,38) --> 79,
(11,0) --> 24,
(11,1) --> 24,
(11,2) --> 76,
(11,3) --> 43,
(11,4) --> 88,
(11,5) --> 26,
(11,6) --> 16,
(11,7) --> 68,
(11,8) --> 70,
(11,9) --> 58,
(11,10) --> 71,
(11,11) --> 0,
(11,12) --> 66,
(11,13) --> 32,
(11,14) --> 77,
(11,15) --> 31,
(11,16) --> 92,
(11,17) --> 35,
(11,18) --> 48,
(11,19) --> 87,
(11,20) --> 38,
(11,21) --> 34,
(11,22) --> 56,
(11,23) --> 33,
(11,24) --> 33,
(11,25) --> 100,
(11,26) --> 18,
(11,27) --> 61,
(11,28) --> 50,
(11,29) --> 47,
(11,30) --> 36,
(11,31) --> 72,
(11,32) --> 48,
(11,33) --> 89,
(11,34) --> 60,
(11,35) --> 107,
(11,36) --> 23,
(11,37) --> 71,
(11,38) --> 63,
(12,0) --> 42,
(12,1) --> 80,
(12,2) --> 58,
(12,3) --> 25,
(12,4) --> 84,
(12,5) --> 45,
(12,6) --> 71,
(12,7) --> 67,
(12,8) --> 64,
(12,9) --> 36,
(12,10) --> 86,
(12,11) --> 66,
(12,12) --> 0,
(12,13) --> 40,
(12,14) --> 42,
(12,15) --> 37,
(12,16) --> 101,
(12,17) --> 95,
(12,18) --> 84,
(12,19) --> 72,
(12,20) --> 54,
(12,21) --> 82,
(12,22) --> 93,
(12,23) --> 87,
(12,24) --> 33,
(12,25) --> 63,
(12,26) --> 49,
(12,27) --> 85,
(12,28) --> 31,
(12,29) --> 27,
(12,30) --> 42,
(12,31) --> 27,
(12,32) --> 71,
(12,33) --> 71,
(12,34) --> 94,
(12,35) --> 60,
(12,36) --> 84,
(12,37) --> 17,
(12,38) --> 7,
(13,0) --> 12,
(13,1) --> 40,
(13,2) --> 48,
(13,3) --> 16,
(13,4) --> 66,
(13,5) --> 27,
(13,6) --> 31,
(13,7) --> 45,
(13,8) --> 46,
(13,9) --> 50,
(13,10) --> 57,
(13,11) --> 32,
(13,12) --> 40,
(13,13) --> 0,
(13,14) --> 46,
(13,15) --> 6,
(13,16) --> 76,
(13,17) --> 55,
(13,18) --> 46,
(13,19) --> 61,
(13,20) --> 18,
(13,21) --> 42,
(13,22) --> 55,
(13,23) --> 47,
(13,24) --> 13,
(13,25) --> 70,
(13,26) --> 22,
(13,27) --> 52,
(13,28) --> 40,
(13,29) --> 33,
(13,30) --> 6,
(13,31) --> 41,
(13,32) --> 36,
(13,33) --> 62,
(13,34) --> 57,
(13,35) --> 75,
(13,36) --> 45,
(13,37) --> 40,
(13,38) --> 35,
(14,0) --> 56,
(14,1) --> 78,
(14,2) --> 19,
(14,3) --> 42,
(14,4) --> 45,
(14,5) --> 69,
(14,6) --> 72,
(14,7) --> 34,
(14,8) --> 30,
(14,9) --> 75,
(14,10) --> 56,
(14,11) --> 77,
(14,12) --> 42,
(14,13) --> 46,
(14,14) --> 0,
(14,15) --> 48,
(14,16) --> 65,
(14,17) --> 92,
(14,18) --> 68,
(14,19) --> 32,
(14,20) --> 44,
(14,21) --> 74,
(14,22) --> 74,
(14,23) --> 81,
(14,24) --> 51,
(14,25) --> 24,
(14,26) --> 66,
(14,27) --> 61,
(14,28) --> 67,
(14,29) --> 61,
(14,30) --> 41,
(14,31) --> 16,
(14,32) --> 53,
(14,33) --> 30,
(14,34) --> 72,
(14,35) --> 30,
(14,36) --> 85,
(14,37) --> 26,
(14,38) --> 36,
(15,0) --> 8,
(15,1) --> 43,
(15,2) --> 52,
(15,3) --> 13,
(15,4) --> 71,
(15,5) --> 22,
(15,6) --> 34,
(15,7) --> 50,
(15,8) --> 51,
(15,9) --> 44,
(15,10) --> 62,
(15,11) --> 31,
(15,12) --> 37,
(15,13) --> 6,
(15,14) --> 48,
(15,15) --> 0,
(15,16) --> 82,
(15,17) --> 58,
(15,18) --> 51,
(15,19) --> 65,
(15,20) --> 24,
(15,21) --> 46,
(15,22) --> 60,
(15,23) --> 50,
(15,24) --> 7,
(15,25) --> 72,
(15,26) --> 18,
(15,27) --> 57,
(15,28) --> 34,
(15,29) --> 28,
(15,30) --> 12,
(15,31) --> 42,
(15,32) --> 42,
(15,33) --> 66,
(15,34) --> 63,
(15,35) --> 77,
(15,36) --> 47,
(15,37) --> 40,
(15,38) --> 33,
(16,0) --> 87,
(16,1) --> 74,
(16,2) --> 46,
(16,3) --> 86,
(16,4) --> 22,
(16,5) --> 102,
(16,6) --> 78,
(16,7) --> 34,
(16,8) --> 37,
(16,9) --> 125,
(16,10) --> 21,
(16,11) --> 92,
(16,12) --> 101,
(16,13) --> 76,
(16,14) --> 65,
(16,15) --> 82,
(16,16) --> 0,
(16,17) --> 80,
(16,18) --> 48,
(16,19) --> 36,
(16,20) --> 58,
(16,21) --> 64,
(16,22) --> 45,
(16,23) --> 70,
(16,24) --> 88,
(16,25) --> 66,
(16,26) --> 95,
(16,27) --> 32,
(16,28) --> 115,
(16,29) --> 108,
(16,30) --> 70,
(16,31) --> 79,
(16,32) --> 44,
(16,33) --> 40,
(16,34) --> 39,
(16,35) --> 80,
(16,36) --> 82,
(16,37) --> 88,
(16,38) --> 94,
(17,0) --> 54,
(17,1) --> 15,
(17,2) --> 84,
(17,3) --> 70,
(17,4) --> 85,
(17,5) --> 61,
(17,6) --> 24,
(17,7) --> 70,
(17,8) --> 74,
(17,9) --> 93,
(17,10) --> 62,
(17,11) --> 35,
(17,12) --> 95,
(17,13) --> 55,
(17,14) --> 92,
(17,15) --> 58,
(17,16) --> 80,
(17,17) --> 0,
(17,18) --> 33,
(17,19) --> 90,
(17,20) --> 48,
(17,21) --> 19,
(17,22) --> 36,
(17,23) --> 12,
(17,24) --> 63,
(17,25) --> 112,
(17,26) --> 52,
(17,27) --> 49,
(17,28) --> 84,
(17,29) --> 80,
(17,30) --> 55,
(17,31) --> 93,
(17,32) --> 44,
(17,33) --> 93,
(17,34) --> 42,
(17,35) --> 122,
(17,36) --> 12,
(17,37) --> 95,
(17,38) --> 90,
(18,0) --> 53,
(18,1) --> 27,
(18,2) --> 56,
(18,3) --> 62,
(18,4) --> 53,
(18,5) --> 66,
(18,6) --> 32,
(18,7) --> 40,
(18,8) --> 44,
(18,9) --> 95,
(18,10) --> 29,
(18,11) --> 48,
(18,12) --> 84,
(18,13) --> 46,
(18,14) --> 68,
(18,15) --> 51,
(18,16) --> 48,
(18,17) --> 33,
(18,18) --> 0,
(18,19) --> 58,
(18,20) --> 30,
(18,21) --> 16,
(18,22) --> 9,
(18,23) --> 22,
(18,24) --> 58,
(18,25) --> 84,
(18,26) --> 57,
(18,27) --> 16,
(18,28) --> 85,
(18,29) --> 79,
(18,30) --> 43,
(18,31) --> 74,
(18,32) --> 15,
(18,33) --> 62,
(18,34) --> 13,
(18,35) --> 95,
(18,36) --> 34,
(18,37) --> 78,
(18,38) --> 78,
(19,0) --> 73,
(19,1) --> 78,
(19,2) --> 14,
(19,3) --> 65,
(19,4) --> 14,
(19,5) --> 87,
(19,6) --> 77,
(19,7) --> 20,
(19,8) --> 16,
(19,9) --> 102,
(19,10) --> 35,
(19,11) --> 87,
(19,12) --> 72,
(19,13) --> 61,
(19,14) --> 32,
(19,15) --> 65,
(19,16) --> 36,
(19,17) --> 90,
(19,18) --> 58,
(19,19) --> 0,
(19,20) --> 48,
(19,21) --> 71,
(19,22) --> 61,
(19,23) --> 78,
(19,24) --> 70,
(19,25) --> 31,
(19,26) --> 82,
(19,27) --> 45,
(19,28) --> 93,
(19,29) --> 86,
(19,30) --> 54,
(19,31) --> 47,
(19,32) --> 46,
(19,33) --> 4,
(19,34) --> 57,
(19,35) --> 44,
(19,36) --> 86,
(19,37) --> 57,
(19,38) --> 65,
(20,0) --> 29,
(20,1) --> 34,
(20,2) --> 39,
(20,3) --> 32,
(20,4) --> 51,
(20,5) --> 44,
(20,6) --> 30,
(20,7) --> 30,
(20,8) --> 32,
(20,9) --> 68,
(20,10) --> 38,
(20,11) --> 38,
(20,12) --> 54,
(20,13) --> 18,
(20,14) --> 44,
(20,15) --> 24,
(20,16) --> 58,
(20,17) --> 48,
(20,18) --> 30,
(20,19) --> 48,
(20,20) --> 0,
(20,21) --> 31,
(20,22) --> 38,
(20,23) --> 38,
(20,24) --> 31,
(20,25) --> 65,
(20,26) --> 37,
(20,27) --> 33,
(20,28) --> 58,
(20,29) --> 52,
(20,30) --> 13,
(20,31) --> 46,
(20,32) --> 18,
(20,33) --> 51,
(20,34) --> 40,
(20,35) --> 74,
(20,36) --> 41,
(20,37) --> 49,
(20,38) --> 48,
(21,0) --> 45,
(21,1) --> 11,
(21,2) --> 65,
(21,3) --> 58,
(21,4) --> 67,
(21,5) --> 55,
(21,6) --> 18,
(21,7) --> 51,
(21,8) --> 55,
(21,9) --> 87,
(21,10) --> 44,
(21,11) --> 34,
(21,12) --> 82,
(21,13) --> 42,
(21,14) --> 74,
(21,15) --> 46,
(21,16) --> 64,
(21,17) --> 19,
(21,18) --> 16,
(21,19) --> 71,
(21,20) --> 31,
(21,21) --> 0,
(21,22) --> 22,
(21,23) --> 7,
(21,24) --> 52,
(21,25) --> 93,
(21,26) --> 47,
(21,27) --> 32,
(21,28) --> 77,
(21,29) --> 72,
(21,30) --> 41,
(21,31) --> 77,
(21,32) --> 25,
(21,33) --> 74,
(21,34) --> 28,
(21,35) --> 103,
(21,36) --> 18,
(21,37) --> 80,
(21,38) --> 77,
(22,0) --> 62,
(22,1) --> 33,
(22,2) --> 60,
(22,3) --> 70,
(22,4) --> 53,
(22,5) --> 74,
(22,6) --> 40,
(22,7) --> 43,
(22,8) --> 48,
(22,9) --> 104,
(22,10) --> 28,
(22,11) --> 56,
(22,12) --> 93,
(22,13) --> 55,
(22,14) --> 74,
(22,15) --> 60,
(22,16) --> 45,
(22,17) --> 36,
(22,18) --> 9,
(22,19) --> 61,
(22,20) --> 38,
(22,21) --> 22,
(22,22) --> 0,
(22,23) --> 27,
(22,24) --> 67,
(22,25) --> 88,
(22,26) --> 66,
(22,27) --> 16,
(22,28) --> 94,
(22,29) --> 88,
(22,30) --> 51,
(22,31) --> 81,
(22,32) --> 22,
(22,33) --> 65,
(22,34) --> 6,
(22,35) --> 100,
(22,36) --> 40,
(22,37) --> 86,
(22,38) --> 86,
(23,0) --> 48,
(23,1) --> 9,
(23,2) --> 72,
(23,3) --> 63,
(23,4) --> 74,
(23,5) --> 57,
(23,6) --> 19,
(23,7) --> 58,
(23,8) --> 62,
(23,9) --> 89,
(23,10) --> 51,
(23,11) --> 33,
(23,12) --> 87,
(23,13) --> 47,
(23,14) --> 81,
(23,15) --> 50,
(23,16) --> 70,
(23,17) --> 12,
(23,18) --> 22,
(23,19) --> 78,
(23,20) --> 38,
(23,21) --> 7,
(23,22) --> 27,
(23,23) --> 0,
(23,24) --> 56,
(23,25) --> 100,
(23,26) --> 48,
(23,27) --> 38,
(23,28) --> 80,
(23,29) --> 75,
(23,30) --> 46,
(23,31) --> 83,
(23,32) --> 32,
(23,33) --> 82,
(23,34) --> 33,
(23,35) --> 110,
(23,36) --> 13,
(23,37) --> 85,
(23,38) --> 82,
(24,0) --> 9,
(24,1) --> 48,
(24,2) --> 57,
(24,3) --> 10,
(24,4) --> 77,
(24,5) --> 18,
(24,6) --> 38,
(24,7) --> 56,
(24,8) --> 56,
(24,9) --> 37,
(24,10) --> 69,
(24,11) --> 33,
(24,12) --> 33,
(24,13) --> 13,
(24,14) --> 51,
(24,15) --> 7,
(24,16) --> 88,
(24,17) --> 63,
(24,18) --> 58,
(24,19) --> 70,
(24,20) --> 31,
(24,21) --> 52,
(24,22) --> 67,
(24,23) --> 56,
(24,24) --> 0,
(24,25) --> 75,
(24,26) --> 17,
(24,27) --> 64,
(24,28) --> 27,
(24,29) --> 21,
(24,30) --> 18,
(24,31) --> 42,
(24,32) --> 49,
(24,33) --> 71,
(24,34) --> 70,
(24,35) --> 78,
(24,36) --> 51,
(24,37) --> 38,
(24,38) --> 30,
(25,0) --> 81,
(25,1) --> 98,
(25,2) --> 28,
(25,3) --> 66,
(25,4) --> 44,
(25,5) --> 93,
(25,6) --> 94,
(25,7) --> 45,
(25,8) --> 40,
(25,9) --> 98,
(25,10) --> 65,
(25,11) --> 100,
(25,12) --> 63,
(25,13) --> 70,
(25,14) --> 24,
(25,15) --> 72,
(25,16) --> 66,
(25,17) --> 112,
(25,18) --> 84,
(25,19) --> 31,
(25,20) --> 65,
(25,21) --> 93,
(25,22) --> 88,
(25,23) --> 100,
(25,24) --> 75,
(25,25) --> 0,
(25,26) --> 91,
(25,27) --> 73,
(25,28) --> 91,
(25,29) --> 84,
(25,30) --> 65,
(25,31) --> 36,
(25,32) --> 69,
(25,33) --> 26,
(25,34) --> 85,
(25,35) --> 14,
(25,36) --> 106,
(25,37) --> 46,
(25,38) --> 57,
(26,0) --> 10,
(26,1) --> 39,
(26,2) --> 70,
(26,3) --> 27,
(26,4) --> 87,
(26,5) --> 9,
(26,6) --> 29,
(26,7) --> 66,
(26,8) --> 67,
(26,9) --> 41,
(26,10) --> 74,
(26,11) --> 18,
(26,12) --> 49,
(26,13) --> 22,
(26,14) --> 66,
(26,15) --> 18,
(26,16) --> 95,
(26,17) --> 52,
(26,18) --> 57,
(26,19) --> 82,
(26,20) --> 37,
(26,21) --> 47,
(26,22) --> 66,
(26,23) --> 48,
(26,24) --> 17,
(26,25) --> 91,
(26,26) --> 0,
(26,27) --> 67,
(26,28) --> 32,
(26,29) --> 28,
(26,30) --> 28,
(26,31) --> 59,
(26,32) --> 52,
(26,33) --> 84,
(26,34) --> 69,
(26,35) --> 95,
(26,36) --> 40,
(26,37) --> 56,
(26,38) --> 47,
(27,0) --> 61,
(27,1) --> 42,
(27,2) --> 46,
(27,3) --> 65,
(27,4) --> 38,
(27,5) --> 75,
(27,6) --> 46,
(27,7) --> 29,
(27,8) --> 33,
(27,9) --> 102,
(27,10) --> 13,
(27,11) --> 61,
(27,12) --> 85,
(27,13) --> 52,
(27,14) --> 61,
(27,15) --> 57,
(27,16) --> 32,
(27,17) --> 49,
(27,18) --> 16,
(27,19) --> 45,
(27,20) --> 33,
(27,21) --> 32,
(27,22) --> 16,
(27,23) --> 38,
(27,24) --> 64,
(27,25) --> 73,
(27,26) --> 67,
(27,27) --> 0,
(27,28) --> 92,
(27,29) --> 85,
(27,30) --> 47,
(27,31) --> 70,
(27,32) --> 16,
(27,33) --> 50,
(27,34) --> 12,
(27,35) --> 86,
(27,36) --> 50,
(27,37) --> 76,
(27,38) --> 79,
(28,0) --> 32,
(28,1) --> 71,
(28,2) --> 79,
(28,3) --> 29,
(28,4) --> 102,
(28,5) --> 24,
(28,6) --> 61,
(28,7) --> 82,
(28,8) --> 81,
(28,9) --> 10,
(28,10) --> 96,
(28,11) --> 50,
(28,12) --> 31,
(28,13) --> 40,
(28,14) --> 67,
(28,15) --> 34,
(28,16) --> 115,
(28,17) --> 84,
(28,18) --> 85,
(28,19) --> 93,
(28,20) --> 58,
(28,21) --> 77,
(28,22) --> 94,
(28,23) --> 80,
(28,24) --> 27,
(28,25) --> 91,
(28,26) --> 32,
(28,27) --> 92,
(28,28) --> 0,
(28,29) --> 7,
(28,30) --> 45,
(28,31) --> 54,
(28,32) --> 76,
(28,33) --> 93,
(28,34) --> 97,
(28,35) --> 90,
(28,36) --> 72,
(28,37) --> 46,
(28,38) --> 34,
(29,0) --> 27,
(29,1) --> 66,
(29,2) --> 72,
(29,3) --> 22,
(29,4) --> 94,
(29,5) --> 22,
(29,6) --> 56,
(29,7) --> 74,
(29,8) --> 74,
(29,9) --> 17,
(29,10) --> 89,
(29,11) --> 47,
(29,12) --> 27,
(29,13) --> 33,
(29,14) --> 61,
(29,15) --> 28,
(29,16) --> 108,
(29,17) --> 80,
(29,18) --> 79,
(29,19) --> 86,
(29,20) --> 52,
(29,21) --> 72,
(29,22) --> 88,
(29,23) --> 75,
(29,24) --> 21,
(29,25) --> 84,
(29,26) --> 28,
(29,27) --> 85,
(29,28) --> 7,
(29,29) --> 0,
(29,30) --> 38,
(29,31) --> 48,
(29,32) --> 69,
(29,33) --> 86,
(29,34) --> 90,
(29,35) --> 84,
(29,36) --> 68,
(29,37) --> 40,
(29,38) --> 29,
(30,0) --> 18,
(30,1) --> 40,
(30,2) --> 42,
(30,3) --> 19,
(30,4) --> 59,
(30,5) --> 34,
(30,6) --> 33,
(30,7) --> 39,
(30,8) --> 39,
(30,9) --> 55,
(30,10) --> 51,
(30,11) --> 36,
(30,12) --> 42,
(30,13) --> 6,
(30,14) --> 41,
(30,15) --> 12,
(30,16) --> 70,
(30,17) --> 55,
(30,18) --> 43,
(30,19) --> 54,
(30,20) --> 13,
(30,21) --> 41,
(30,22) --> 51,
(30,23) --> 46,
(30,24) --> 18,
(30,25) --> 65,
(30,26) --> 28,
(30,27) --> 47,
(30,28) --> 45,
(30,29) --> 38,
(30,30) --> 0,
(30,31) --> 38,
(30,32) --> 31,
(30,33) --> 56,
(30,34) --> 53,
(30,35) --> 71,
(30,36) --> 46,
(30,37) --> 39,
(30,38) --> 36,
(31,0) --> 49,
(31,1) --> 78,
(31,2) --> 33,
(31,3) --> 32,
(31,4) --> 59,
(31,5) --> 59,
(31,6) --> 71,
(31,7) --> 46,
(31,8) --> 42,
(31,9) --> 61,
(31,10) --> 67,
(31,11) --> 72,
(31,12) --> 27,
(31,13) --> 41,
(31,14) --> 16,
(31,15) --> 42,
(31,16) --> 79,
(31,17) --> 93,
(31,18) --> 74,
(31,19) --> 47,
(31,20) --> 46,
(31,21) --> 77,
(31,22) --> 81,
(31,23) --> 83,
(31,24) --> 42,
(31,25) --> 36,
(31,26) --> 59,
(31,27) --> 70,
(31,28) --> 54,
(31,29) --> 48,
(31,30) --> 38,
(31,31) --> 0,
(31,32) --> 59,
(31,33) --> 45,
(31,34) --> 80,
(31,35) --> 37,
(31,36) --> 84,
(31,37) --> 10,
(31,38) --> 21,
(32,0) --> 45,
(32,1) --> 33,
(32,2) --> 41,
(32,3) --> 50,
(32,4) --> 43,
(32,5) --> 60,
(32,6) --> 34,
(32,7) --> 26,
(32,8) --> 30,
(32,9) --> 86,
(32,10) --> 23,
(32,11) --> 48,
(32,12) --> 71,
(32,13) --> 36,
(32,14) --> 53,
(32,15) --> 42,
(32,16) --> 44,
(32,17) --> 44,
(32,18) --> 15,
(32,19) --> 46,
(32,20) --> 18,
(32,21) --> 25,
(32,22) --> 22,
(32,23) --> 32,
(32,24) --> 49,
(32,25) --> 69,
(32,26) --> 52,
(32,27) --> 16,
(32,28) --> 76,
(32,29) --> 69,
(32,30) --> 31,
(32,31) --> 59,
(32,32) --> 0,
(32,33) --> 49,
(32,34) --> 22,
(32,35) --> 80,
(32,36) --> 41,
(32,37) --> 64,
(32,38) --> 65,
(33,0) --> 74,
(33,1) --> 81,
(33,2) --> 15,
(33,3) --> 65,
(33,4) --> 18,
(33,5) --> 89,
(33,6) --> 80,
(33,7) --> 23,
(33,8) --> 20,
(33,9) --> 102,
(33,10) --> 39,
(33,11) --> 89,
(33,12) --> 71,
(33,13) --> 62,
(33,14) --> 30,
(33,15) --> 66,
(33,16) --> 40,
(33,17) --> 93,
(33,18) --> 62,
(33,19) --> 4,
(33,20) --> 51,
(33,21) --> 74,
(33,22) --> 65,
(33,23) --> 82,
(33,24) --> 71,
(33,25) --> 26,
(33,26) --> 84,
(33,27) --> 50,
(33,28) --> 93,
(33,29) --> 86,
(33,30) --> 56,
(33,31) --> 45,
(33,32) --> 49,
(33,33) --> 0,
(33,34) --> 61,
(33,35) --> 40,
(33,36) --> 90,
(33,37) --> 55,
(33,38) --> 64,
(34,0) --> 65,
(34,1) --> 39,
(34,2) --> 57,
(34,3) --> 72,
(34,4) --> 48,
(34,5) --> 78,
(34,6) --> 45,
(34,7) --> 40,
(34,8) --> 45,
(34,9) --> 107,
(34,10) --> 23,
(34,11) --> 60,
(34,12) --> 94,
(34,13) --> 57,
(34,14) --> 72,
(34,15) --> 63,
(34,16) --> 39,
(34,17) --> 42,
(34,18) --> 13,
(34,19) --> 57,
(34,20) --> 40,
(34,21) --> 28,
(34,22) --> 6,
(34,23) --> 33,
(34,24) --> 70,
(34,25) --> 85,
(34,26) --> 69,
(34,27) --> 12,
(34,28) --> 97,
(34,29) --> 90,
(34,30) --> 53,
(34,31) --> 80,
(34,32) --> 22,
(34,33) --> 61,
(34,34) --> 0,
(34,35) --> 98,
(34,36) --> 46,
(34,37) --> 86,
(34,38) --> 87,
(35,0) --> 85,
(35,1) --> 108,
(35,2) --> 40,
(35,3) --> 69,
(35,4) --> 58,
(35,5) --> 96,
(35,6) --> 102,
(35,7) --> 57,
(35,8) --> 53,
(35,9) --> 96,
(35,10) --> 78,
(35,11) --> 107,
(35,12) --> 60,
(35,13) --> 75,
(35,14) --> 30,
(35,15) --> 77,
(35,16) --> 80,
(35,17) --> 122,
(35,18) --> 95,
(35,19) --> 44,
(35,20) --> 74,
(35,21) --> 103,
(35,22) --> 100,
(35,23) --> 110,
(35,24) --> 78,
(35,25) --> 14,
(35,26) --> 95,
(35,27) --> 86,
(35,28) --> 90,
(35,29) --> 84,
(35,30) --> 71,
(35,31) --> 37,
(35,32) --> 80,
(35,33) --> 40,
(35,34) --> 98,
(35,35) --> 0,
(35,36) --> 115,
(35,37) --> 44,
(35,38) --> 56,
(36,0) --> 43,
(36,1) --> 8,
(36,2) --> 79,
(36,3) --> 59,
(36,4) --> 84,
(36,5) --> 48,
(36,6) --> 13,
(36,7) --> 66,
(36,8) --> 70,
(36,9) --> 81,
(36,10) --> 62,
(36,11) --> 23,
(36,12) --> 84,
(36,13) --> 45,
(36,14) --> 85,
(36,15) --> 47,
(36,16) --> 82,
(36,17) --> 12,
(36,18) --> 34,
(36,19) --> 86,
(36,20) --> 41,
(36,21) --> 18,
(36,22) --> 40,
(36,23) --> 13,
(36,24) --> 51,
(36,25) --> 106,
(36,26) --> 40,
(36,27) --> 50,
(36,28) --> 72,
(36,29) --> 68,
(36,30) --> 46,
(36,31) --> 84,
(36,32) --> 41,
(36,33) --> 90,
(36,34) --> 46,
(36,35) --> 115,
(36,36) --> 0,
(36,37) --> 85,
(36,38) --> 80,
(37,0) --> 47,
(37,1) --> 80,
(37,2) --> 43,
(37,3) --> 28,
(37,4) --> 69,
(37,5) --> 55,
(37,6) --> 72,
(37,7) --> 54,
(37,8) --> 51,
(37,9) --> 52,
(37,10) --> 75,
(37,11) --> 71,
(37,12) --> 17,
(37,13) --> 40,
(37,14) --> 26,
(37,15) --> 40,
(37,16) --> 88,
(37,17) --> 95,
(37,18) --> 78,
(37,19) --> 57,
(37,20) --> 49,
(37,21) --> 80,
(37,22) --> 86,
(37,23) --> 85,
(37,24) --> 38,
(37,25) --> 46,
(37,26) --> 56,
(37,27) --> 76,
(37,28) --> 46,
(37,29) --> 40,
(37,30) --> 39,
(37,31) --> 10,
(37,32) --> 64,
(37,33) --> 55,
(37,34) --> 86,
(37,35) --> 44,
(37,36) --> 85,
(37,37) --> 0,
(37,38) --> 12,
(38,0) --> 39,
(38,1) --> 75,
(38,2) --> 51,
(38,3) --> 21,
(38,4) --> 76,
(38,5) --> 44,
(38,6) --> 66,
(38,7) --> 59,
(38,8) --> 57,
(38,9) --> 40,
(38,10) --> 79,
(38,11) --> 63,
(38,12) --> 7,
(38,13) --> 35,
(38,14) --> 36,
(38,15) --> 33,
(38,16) --> 94,
(38,17) --> 90,
(38,18) --> 78,
(38,19) --> 65,
(38,20) --> 48,
(38,21) --> 77,
(38,22) --> 86,
(38,23) --> 82,
(38,24) --> 30,
(38,25) --> 57,
(38,26) --> 47,
(38,27) --> 79,
(38,28) --> 34,
(38,29) --> 29,
(38,30) --> 36,
(38,31) --> 21,
(38,32) --> 65,
(38,33) --> 64,
(38,34) --> 87,
(38,35) --> 56,
(38,36) --> 80,
(38,37) --> 12,
(38,38) --> 0)
letting orderWeights be function (
1 --> 18
,
2 --> 16
,
3 --> 22
,
4 --> 24
,
5 --> 3
,
6 --> 19
,
7 --> 6
,
8 --> 6
,
9 --> 6
,
10 --> 12
,
11 --> 18
,
12 --> 16
,
13 --> 72
,
14 --> 7
,
15 --> 16
,
16 --> 23
,
17 --> 4
,
18 --> 22
,
19 --> 23
,
20 --> 7
,
21 --> 11
,
22 --> 11
,
23 --> 1
,
24 --> 22
,
25 --> 16
,
26 --> 15
,
27 --> 7
,
28 --> 5
,
29 --> 22
,
30 --> 9
,
31 --> 10
,
32 --> 11
,
33 --> 9
,
34 --> 3
,
35 --> 7
,
36 --> 15
,
37 --> 10
,
38 --> 2
)
letting vehicleCapacity be 100
